NAME: random-71-3344
TYPE: TSP
COMMENT: size=71 seed=3344
DIMENSION: 144
EDGE_WEIGHT_TYPE: EUC_2D
NODE_COORD_SECTION
+0 608 623
-0 608 623
+1 613 964
-1 557 342
+2 175 21
-2 906 568
+3 882 43
-3 362 195
+4 620 601
-4 506 247
+5 20 624
-5 953 191
+6 277 938
-6 427 290
+7 727 672
-7 900 588
+8 709 622
-8 373 993
+9 371 993
-9 18 437
+10 226 773
-10 40 791
+11 674 59
-11 968 478
+12 319 835
-12 83 373
+13 187 143
-13 745 828
+14 634 777
-14 440 938
+15 193 615
-15 134 554
+16 91 235
-16 905 311
+17 89 790
-17 434 716
+18 318 887
-18 723 225
+19 210 335
-19 938 111
+20 664 243
-20 85 950
+21 607 145
-21 853 1
+22 870 275
-22 659 784
+23 789 156
-23 216 988
+24 385 270
-24 372 853
+25 332 660
-25 504 220
+26 570 735
-26 987 398
+27 947 74
-27 978 670
+28 742 434
-28 857 207
+29 350 239
-29 309 636
+30 752 662
-30 866 657
+31 297 661
-31 880 426
+32 276 461
-32 46 100
+33 414 222
-33 218 912
+34 943 957
-34 763 875
+35 429 346
-35 99 343
+36 568 958
-36 482 393
+37 819 513
-37 871 901
+38 293 187
-38 827 424
+39 735 921
-39 854 149
+40 596 393
-40 925 567
+41 54 631
-41 58 658
+42 208 12
-42 358 769
+43 596 198
-43 997 973
+44 838 899
-44 466 34
+45 744 384
-45 433 11
+46 155 247
-46 640 207
+47 420 414
-47 511 915
+48 311 509
-48 31 81
+49 341 379
-49 133 509
+50 895 324
-50 645 647
+51 686 711
-51 245 512
+52 921 120
-52 816 811
+53 63 560
-53 546 313
+54 933 474
-54 224 239
+55 826 107
-55 77 898
+56 753 171
-56 552 704
+57 715 489
-57 903 168
+58 90 641
-58 985 140
+59 168 483
-59 807 49
+60 211 430
-60 859 105
+61 285 259
-61 917 241
+62 780 397
-62 689 178
+63 810 464
-63 595 844
+64 378 539
-64 822 804
+65 746 763
-65 644 289
+66 138 777
-66 971 482
+67 191 380
-67 0 904
+68 759 764
-68 858 365
+69 653 389
-69 636 479
+70 488 789
-70 849 479
+71 424 637
-71 280 203
PRECEDENCE_SECTION
+0 -0
+1 -1
+2 -2
+3 -3
+4 -4
+5 -5
+6 -6
+7 -7
+8 -8
+9 -9
+10 -10
+11 -11
+12 -12
+13 -13
+14 -14
+15 -15
+16 -16
+17 -17
+18 -18
+19 -19
+20 -20
+21 -21
+22 -22
+23 -23
+24 -24
+25 -25
+26 -26
+27 -27
+28 -28
+29 -29
+30 -30
+31 -31
+32 -32
+33 -33
+34 -34
+35 -35
+36 -36
+37 -37
+38 -38
+39 -39
+40 -40
+41 -41
+42 -42
+43 -43
+44 -44
+45 -45
+46 -46
+47 -47
+48 -48
+49 -49
+50 -50
+51 -51
+52 -52
+53 -53
+54 -54
+55 -55
+56 -56
+57 -57
+58 -58
+59 -59
+60 -60
+61 -61
+62 -62
+63 -63
+64 -64
+65 -65
+66 -66
+67 -67
+68 -68
+69 -69
+70 -70
+71 -71
EOF
